g9 0 1 0 0 20170614 0 4 0 240	# problem hadamals
 90 0 1 0 0	# vars, constraints, objectives, ranges, eqns
 0 1	# nonlinear constraints, objectives
 0 0	# network constraints: nonlinear, linear
 0 90 0	# nonlinear vars in constraints, objectives, both
 0 0 0 1	# linear network variables; functions; arith, flags
 0 0 0 0 0	# discrete variables: binary, integer, nonlinear (b,c,o)
 0 90	# nonzeros in Jacobian, gradients
 0 0	# max name lengths: constraints, variables
 0 0 0 0 0	# common exprs: b,c,o,c1,o1
b
0 -1 1
0 -1 1
0 -1 1
0 -1 1
0 -1 1
0 -1 1
0 -1 1
0 -1 1
0 -1 1
0 -1 1
0 -1 1
0 -1 1
0 -1 1
0 -1 1
0 -1 1
0 -1 1
0 -1 1
0 -1 1
0 -1 1
0 -1 1
0 -1 1
0 -1 1
0 -1 1
0 -1 1
0 -1 1
0 -1 1
0 -1 1
0 -1 1
0 -1 1
0 -1 1
0 -1 1
0 -1 1
0 -1 1
0 -1 1
0 -1 1
0 -1 1
0 -1 1
0 -1 1
0 -1 1
0 -1 1
0 -1 1
0 -1 1
0 -1 1
0 -1 1
0 -1 1
0 -1 1
0 -1 1
0 -1 1
0 -1 1
0 -1 1
0 -1 1
0 -1 1
0 -1 1
0 -1 1
0 -1 1
0 -1 1
0 -1 1
0 -1 1
0 -1 1
0 -1 1
0 -1 1
0 -1 1
0 -1 1
0 -1 1
0 -1 1
0 -1 1
0 -1 1
0 -1 1
0 -1 1
0 -1 1
0 -1 1
0 -1 1
0 -1 1
0 -1 1
0 -1 1
0 -1 1
0 -1 1
0 -1 1
0 -1 1
0 -1 1
0 -1 1
0 -1 1
0 -1 1
0 -1 1
0 -1 1
0 -1 1
0 -1 1
0 -1 1
0 -1 1
0 -1 1
x90
0 0.9
1 0.9
2 0.9
3 0.9
4 0.9
5 -0.9
6 -0.9
7 -0.9
8 -0.9
9 -0.9
10 0.9
11 0.9
12 0.9
13 0.9
14 0.9
15 -0.9
16 -0.9
17 -0.9
18 -0.9
19 -0.9
20 0.9
21 0.9
22 0.9
23 0.9
24 0.9
25 -0.9
26 -0.9
27 -0.9
28 -0.9
29 -0.9
30 0.9
31 0.9
32 0.9
33 0.9
34 0.9
35 -0.9
36 -0.9
37 -0.9
38 -0.9
39 -0.9
40 0.9
41 0.9
42 0.9
43 0.9
44 0.9
45 -0.9
46 -0.9
47 -0.9
48 -0.9
49 -0.9
50 0.9
51 0.9
52 0.9
53 0.9
54 0.9
55 -0.9
56 -0.9
57 -0.9
58 -0.9
59 -0.9
60 0.9
61 0.9
62 0.9
63 0.9
64 0.9
65 -0.9
66 -0.9
67 -0.9
68 -0.9
69 -0.9
70 0.9
71 0.9
72 0.9
73 0.9
74 0.9
75 -0.9
76 -0.9
77 -0.9
78 -0.9
79 -0.9
80 0.9
81 0.9
82 0.9
83 0.9
84 0.9
85 -0.9
86 -0.9
87 -0.9
88 -0.9
89 -0.9
O0 0
o54
135
o2
o54
10
v0
v1
v2
v3
v4
o16
v5
o16
v6
o16
v7
o16
v8
o16
v9
o54
10
v0
v1
v2
v3
v4
o16
v5
o16
v6
o16
v7
o16
v8
o16
v9
o2
o0
n-10
o54
10
o2
v0
v0
o2
v1
v1
o2
v2
v2
o2
v3
v3
o2
v4
v4
o2
v5
v5
o2
v6
v6
o2
v7
v7
o2
v8
v8
o2
v9
v9
o0
n-10
o54
10
o2
v0
v0
o2
v1
v1
o2
v2
v2
o2
v3
v3
o2
v4
v4
o2
v5
v5
o2
v6
v6
o2
v7
v7
o2
v8
v8
o2
v9
v9
o2
o54
10
v10
v11
v12
v13
v14
o16
v15
o16
v16
o16
v17
o16
v18
o16
v19
o54
10
v10
v11
v12
v13
v14
o16
v15
o16
v16
o16
v17
o16
v18
o16
v19
o2
o54
10
o2
v0
v10
o2
v1
v11
o2
v2
v12
o2
v3
v13
o2
v4
v14
o2
v5
v15
o2
v6
v16
o2
v7
v17
o2
v8
v18
o2
v9
v19
o54
10
o2
v0
v10
o2
v1
v11
o2
v2
v12
o2
v3
v13
o2
v4
v14
o2
v5
v15
o2
v6
v16
o2
v7
v17
o2
v8
v18
o2
v9
v19
o2
o0
n-10
o54
10
o2
v10
v10
o2
v11
v11
o2
v12
v12
o2
v13
v13
o2
v14
v14
o2
v15
v15
o2
v16
v16
o2
v17
v17
o2
v18
v18
o2
v19
v19
o0
n-10
o54
10
o2
v10
v10
o2
v11
v11
o2
v12
v12
o2
v13
v13
o2
v14
v14
o2
v15
v15
o2
v16
v16
o2
v17
v17
o2
v18
v18
o2
v19
v19
o2
o54
10
v20
v21
v22
v23
v24
o16
v25
o16
v26
o16
v27
o16
v28
o16
v29
o54
10
v20
v21
v22
v23
v24
o16
v25
o16
v26
o16
v27
o16
v28
o16
v29
o2
o54
10
o2
v0
v20
o2
v1
v21
o2
v2
v22
o2
v3
v23
o2
v4
v24
o2
v5
v25
o2
v6
v26
o2
v7
v27
o2
v8
v28
o2
v9
v29
o54
10
o2
v0
v20
o2
v1
v21
o2
v2
v22
o2
v3
v23
o2
v4
v24
o2
v5
v25
o2
v6
v26
o2
v7
v27
o2
v8
v28
o2
v9
v29
o2
o54
10
o2
v10
v20
o2
v11
v21
o2
v12
v22
o2
v13
v23
o2
v14
v24
o2
v15
v25
o2
v16
v26
o2
v17
v27
o2
v18
v28
o2
v19
v29
o54
10
o2
v10
v20
o2
v11
v21
o2
v12
v22
o2
v13
v23
o2
v14
v24
o2
v15
v25
o2
v16
v26
o2
v17
v27
o2
v18
v28
o2
v19
v29
o2
o0
n-10
o54
10
o2
v20
v20
o2
v21
v21
o2
v22
v22
o2
v23
v23
o2
v24
v24
o2
v25
v25
o2
v26
v26
o2
v27
v27
o2
v28
v28
o2
v29
v29
o0
n-10
o54
10
o2
v20
v20
o2
v21
v21
o2
v22
v22
o2
v23
v23
o2
v24
v24
o2
v25
v25
o2
v26
v26
o2
v27
v27
o2
v28
v28
o2
v29
v29
o2
o54
10
v30
v31
v32
v33
v34
o16
v35
o16
v36
o16
v37
o16
v38
o16
v39
o54
10
v30
v31
v32
v33
v34
o16
v35
o16
v36
o16
v37
o16
v38
o16
v39
o2
o54
10
o2
v0
v30
o2
v1
v31
o2
v2
v32
o2
v3
v33
o2
v4
v34
o2
v5
v35
o2
v6
v36
o2
v7
v37
o2
v8
v38
o2
v9
v39
o54
10
o2
v0
v30
o2
v1
v31
o2
v2
v32
o2
v3
v33
o2
v4
v34
o2
v5
v35
o2
v6
v36
o2
v7
v37
o2
v8
v38
o2
v9
v39
o2
o54
10
o2
v10
v30
o2
v11
v31
o2
v12
v32
o2
v13
v33
o2
v14
v34
o2
v15
v35
o2
v16
v36
o2
v17
v37
o2
v18
v38
o2
v19
v39
o54
10
o2
v10
v30
o2
v11
v31
o2
v12
v32
o2
v13
v33
o2
v14
v34
o2
v15
v35
o2
v16
v36
o2
v17
v37
o2
v18
v38
o2
v19
v39
o2
o54
10
o2
v20
v30
o2
v21
v31
o2
v22
v32
o2
v23
v33
o2
v24
v34
o2
v25
v35
o2
v26
v36
o2
v27
v37
o2
v28
v38
o2
v29
v39
o54
10
o2
v20
v30
o2
v21
v31
o2
v22
v32
o2
v23
v33
o2
v24
v34
o2
v25
v35
o2
v26
v36
o2
v27
v37
o2
v28
v38
o2
v29
v39
o2
o0
n-10
o54
10
o2
v30
v30
o2
v31
v31
o2
v32
v32
o2
v33
v33
o2
v34
v34
o2
v35
v35
o2
v36
v36
o2
v37
v37
o2
v38
v38
o2
v39
v39
o0
n-10
o54
10
o2
v30
v30
o2
v31
v31
o2
v32
v32
o2
v33
v33
o2
v34
v34
o2
v35
v35
o2
v36
v36
o2
v37
v37
o2
v38
v38
o2
v39
v39
o2
o54
10
v40
v41
v42
v43
v44
o16
v45
o16
v46
o16
v47
o16
v48
o16
v49
o54
10
v40
v41
v42
v43
v44
o16
v45
o16
v46
o16
v47
o16
v48
o16
v49
o2
o54
10
o2
v0
v40
o2
v1
v41
o2
v2
v42
o2
v3
v43
o2
v4
v44
o2
v5
v45
o2
v6
v46
o2
v7
v47
o2
v8
v48
o2
v9
v49
o54
10
o2
v0
v40
o2
v1
v41
o2
v2
v42
o2
v3
v43
o2
v4
v44
o2
v5
v45
o2
v6
v46
o2
v7
v47
o2
v8
v48
o2
v9
v49
o2
o54
10
o2
v10
v40
o2
v11
v41
o2
v12
v42
o2
v13
v43
o2
v14
v44
o2
v15
v45
o2
v16
v46
o2
v17
v47
o2
v18
v48
o2
v19
v49
o54
10
o2
v10
v40
o2
v11
v41
o2
v12
v42
o2
v13
v43
o2
v14
v44
o2
v15
v45
o2
v16
v46
o2
v17
v47
o2
v18
v48
o2
v19
v49
o2
o54
10
o2
v20
v40
o2
v21
v41
o2
v22
v42
o2
v23
v43
o2
v24
v44
o2
v25
v45
o2
v26
v46
o2
v27
v47
o2
v28
v48
o2
v29
v49
o54
10
o2
v20
v40
o2
v21
v41
o2
v22
v42
o2
v23
v43
o2
v24
v44
o2
v25
v45
o2
v26
v46
o2
v27
v47
o2
v28
v48
o2
v29
v49
o2
o54
10
o2
v30
v40
o2
v31
v41
o2
v32
v42
o2
v33
v43
o2
v34
v44
o2
v35
v45
o2
v36
v46
o2
v37
v47
o2
v38
v48
o2
v39
v49
o54
10
o2
v30
v40
o2
v31
v41
o2
v32
v42
o2
v33
v43
o2
v34
v44
o2
v35
v45
o2
v36
v46
o2
v37
v47
o2
v38
v48
o2
v39
v49
o2
o0
n-10
o54
10
o2
v40
v40
o2
v41
v41
o2
v42
v42
o2
v43
v43
o2
v44
v44
o2
v45
v45
o2
v46
v46
o2
v47
v47
o2
v48
v48
o2
v49
v49
o0
n-10
o54
10
o2
v40
v40
o2
v41
v41
o2
v42
v42
o2
v43
v43
o2
v44
v44
o2
v45
v45
o2
v46
v46
o2
v47
v47
o2
v48
v48
o2
v49
v49
o2
o54
10
v50
v51
v52
v53
v54
o16
v55
o16
v56
o16
v57
o16
v58
o16
v59
o54
10
v50
v51
v52
v53
v54
o16
v55
o16
v56
o16
v57
o16
v58
o16
v59
o2
o54
10
o2
v0
v50
o2
v1
v51
o2
v2
v52
o2
v3
v53
o2
v4
v54
o2
v5
v55
o2
v6
v56
o2
v7
v57
o2
v8
v58
o2
v9
v59
o54
10
o2
v0
v50
o2
v1
v51
o2
v2
v52
o2
v3
v53
o2
v4
v54
o2
v5
v55
o2
v6
v56
o2
v7
v57
o2
v8
v58
o2
v9
v59
o2
o54
10
o2
v10
v50
o2
v11
v51
o2
v12
v52
o2
v13
v53
o2
v14
v54
o2
v15
v55
o2
v16
v56
o2
v17
v57
o2
v18
v58
o2
v19
v59
o54
10
o2
v10
v50
o2
v11
v51
o2
v12
v52
o2
v13
v53
o2
v14
v54
o2
v15
v55
o2
v16
v56
o2
v17
v57
o2
v18
v58
o2
v19
v59
o2
o54
10
o2
v20
v50
o2
v21
v51
o2
v22
v52
o2
v23
v53
o2
v24
v54
o2
v25
v55
o2
v26
v56
o2
v27
v57
o2
v28
v58
o2
v29
v59
o54
10
o2
v20
v50
o2
v21
v51
o2
v22
v52
o2
v23
v53
o2
v24
v54
o2
v25
v55
o2
v26
v56
o2
v27
v57
o2
v28
v58
o2
v29
v59
o2
o54
10
o2
v30
v50
o2
v31
v51
o2
v32
v52
o2
v33
v53
o2
v34
v54
o2
v35
v55
o2
v36
v56
o2
v37
v57
o2
v38
v58
o2
v39
v59
o54
10
o2
v30
v50
o2
v31
v51
o2
v32
v52
o2
v33
v53
o2
v34
v54
o2
v35
v55
o2
v36
v56
o2
v37
v57
o2
v38
v58
o2
v39
v59
o2
o54
10
o2
v40
v50
o2
v41
v51
o2
v42
v52
o2
v43
v53
o2
v44
v54
o2
v45
v55
o2
v46
v56
o2
v47
v57
o2
v48
v58
o2
v49
v59
o54
10
o2
v40
v50
o2
v41
v51
o2
v42
v52
o2
v43
v53
o2
v44
v54
o2
v45
v55
o2
v46
v56
o2
v47
v57
o2
v48
v58
o2
v49
v59
o2
o0
n-10
o54
10
o2
v50
v50
o2
v51
v51
o2
v52
v52
o2
v53
v53
o2
v54
v54
o2
v55
v55
o2
v56
v56
o2
v57
v57
o2
v58
v58
o2
v59
v59
o0
n-10
o54
10
o2
v50
v50
o2
v51
v51
o2
v52
v52
o2
v53
v53
o2
v54
v54
o2
v55
v55
o2
v56
v56
o2
v57
v57
o2
v58
v58
o2
v59
v59
o2
o54
10
v60
v61
v62
v63
v64
o16
v65
o16
v66
o16
v67
o16
v68
o16
v69
o54
10
v60
v61
v62
v63
v64
o16
v65
o16
v66
o16
v67
o16
v68
o16
v69
o2
o54
10
o2
v0
v60
o2
v1
v61
o2
v2
v62
o2
v3
v63
o2
v4
v64
o2
v5
v65
o2
v6
v66
o2
v7
v67
o2
v8
v68
o2
v9
v69
o54
10
o2
v0
v60
o2
v1
v61
o2
v2
v62
o2
v3
v63
o2
v4
v64
o2
v5
v65
o2
v6
v66
o2
v7
v67
o2
v8
v68
o2
v9
v69
o2
o54
10
o2
v10
v60
o2
v11
v61
o2
v12
v62
o2
v13
v63
o2
v14
v64
o2
v15
v65
o2
v16
v66
o2
v17
v67
o2
v18
v68
o2
v19
v69
o54
10
o2
v10
v60
o2
v11
v61
o2
v12
v62
o2
v13
v63
o2
v14
v64
o2
v15
v65
o2
v16
v66
o2
v17
v67
o2
v18
v68
o2
v19
v69
o2
o54
10
o2
v20
v60
o2
v21
v61
o2
v22
v62
o2
v23
v63
o2
v24
v64
o2
v25
v65
o2
v26
v66
o2
v27
v67
o2
v28
v68
o2
v29
v69
o54
10
o2
v20
v60
o2
v21
v61
o2
v22
v62
o2
v23
v63
o2
v24
v64
o2
v25
v65
o2
v26
v66
o2
v27
v67
o2
v28
v68
o2
v29
v69
o2
o54
10
o2
v30
v60
o2
v31
v61
o2
v32
v62
o2
v33
v63
o2
v34
v64
o2
v35
v65
o2
v36
v66
o2
v37
v67
o2
v38
v68
o2
v39
v69
o54
10
o2
v30
v60
o2
v31
v61
o2
v32
v62
o2
v33
v63
o2
v34
v64
o2
v35
v65
o2
v36
v66
o2
v37
v67
o2
v38
v68
o2
v39
v69
o2
o54
10
o2
v40
v60
o2
v41
v61
o2
v42
v62
o2
v43
v63
o2
v44
v64
o2
v45
v65
o2
v46
v66
o2
v47
v67
o2
v48
v68
o2
v49
v69
o54
10
o2
v40
v60
o2
v41
v61
o2
v42
v62
o2
v43
v63
o2
v44
v64
o2
v45
v65
o2
v46
v66
o2
v47
v67
o2
v48
v68
o2
v49
v69
o2
o54
10
o2
v50
v60
o2
v51
v61
o2
v52
v62
o2
v53
v63
o2
v54
v64
o2
v55
v65
o2
v56
v66
o2
v57
v67
o2
v58
v68
o2
v59
v69
o54
10
o2
v50
v60
o2
v51
v61
o2
v52
v62
o2
v53
v63
o2
v54
v64
o2
v55
v65
o2
v56
v66
o2
v57
v67
o2
v58
v68
o2
v59
v69
o2
o0
n-10
o54
10
o2
v60
v60
o2
v61
v61
o2
v62
v62
o2
v63
v63
o2
v64
v64
o2
v65
v65
o2
v66
v66
o2
v67
v67
o2
v68
v68
o2
v69
v69
o0
n-10
o54
10
o2
v60
v60
o2
v61
v61
o2
v62
v62
o2
v63
v63
o2
v64
v64
o2
v65
v65
o2
v66
v66
o2
v67
v67
o2
v68
v68
o2
v69
v69
o2
o54
10
v70
v71
v72
v73
v74
o16
v75
o16
v76
o16
v77
o16
v78
o16
v79
o54
10
v70
v71
v72
v73
v74
o16
v75
o16
v76
o16
v77
o16
v78
o16
v79
o2
o54
10
o2
v0
v70
o2
v1
v71
o2
v2
v72
o2
v3
v73
o2
v4
v74
o2
v5
v75
o2
v6
v76
o2
v7
v77
o2
v8
v78
o2
v9
v79
o54
10
o2
v0
v70
o2
v1
v71
o2
v2
v72
o2
v3
v73
o2
v4
v74
o2
v5
v75
o2
v6
v76
o2
v7
v77
o2
v8
v78
o2
v9
v79
o2
o54
10
o2
v10
v70
o2
v11
v71
o2
v12
v72
o2
v13
v73
o2
v14
v74
o2
v15
v75
o2
v16
v76
o2
v17
v77
o2
v18
v78
o2
v19
v79
o54
10
o2
v10
v70
o2
v11
v71
o2
v12
v72
o2
v13
v73
o2
v14
v74
o2
v15
v75
o2
v16
v76
o2
v17
v77
o2
v18
v78
o2
v19
v79
o2
o54
10
o2
v20
v70
o2
v21
v71
o2
v22
v72
o2
v23
v73
o2
v24
v74
o2
v25
v75
o2
v26
v76
o2
v27
v77
o2
v28
v78
o2
v29
v79
o54
10
o2
v20
v70
o2
v21
v71
o2
v22
v72
o2
v23
v73
o2
v24
v74
o2
v25
v75
o2
v26
v76
o2
v27
v77
o2
v28
v78
o2
v29
v79
o2
o54
10
o2
v30
v70
o2
v31
v71
o2
v32
v72
o2
v33
v73
o2
v34
v74
o2
v35
v75
o2
v36
v76
o2
v37
v77
o2
v38
v78
o2
v39
v79
o54
10
o2
v30
v70
o2
v31
v71
o2
v32
v72
o2
v33
v73
o2
v34
v74
o2
v35
v75
o2
v36
v76
o2
v37
v77
o2
v38
v78
o2
v39
v79
o2
o54
10
o2
v40
v70
o2
v41
v71
o2
v42
v72
o2
v43
v73
o2
v44
v74
o2
v45
v75
o2
v46
v76
o2
v47
v77
o2
v48
v78
o2
v49
v79
o54
10
o2
v40
v70
o2
v41
v71
o2
v42
v72
o2
v43
v73
o2
v44
v74
o2
v45
v75
o2
v46
v76
o2
v47
v77
o2
v48
v78
o2
v49
v79
o2
o54
10
o2
v50
v70
o2
v51
v71
o2
v52
v72
o2
v53
v73
o2
v54
v74
o2
v55
v75
o2
v56
v76
o2
v57
v77
o2
v58
v78
o2
v59
v79
o54
10
o2
v50
v70
o2
v51
v71
o2
v52
v72
o2
v53
v73
o2
v54
v74
o2
v55
v75
o2
v56
v76
o2
v57
v77
o2
v58
v78
o2
v59
v79
o2
o54
10
o2
v60
v70
o2
v61
v71
o2
v62
v72
o2
v63
v73
o2
v64
v74
o2
v65
v75
o2
v66
v76
o2
v67
v77
o2
v68
v78
o2
v69
v79
o54
10
o2
v60
v70
o2
v61
v71
o2
v62
v72
o2
v63
v73
o2
v64
v74
o2
v65
v75
o2
v66
v76
o2
v67
v77
o2
v68
v78
o2
v69
v79
o2
o0
n-10
o54
10
o2
v70
v70
o2
v71
v71
o2
v72
v72
o2
v73
v73
o2
v74
v74
o2
v75
v75
o2
v76
v76
o2
v77
v77
o2
v78
v78
o2
v79
v79
o0
n-10
o54
10
o2
v70
v70
o2
v71
v71
o2
v72
v72
o2
v73
v73
o2
v74
v74
o2
v75
v75
o2
v76
v76
o2
v77
v77
o2
v78
v78
o2
v79
v79
o2
o54
10
v80
v81
v82
v83
v84
o16
v85
o16
v86
o16
v87
o16
v88
o16
v89
o54
10
v80
v81
v82
v83
v84
o16
v85
o16
v86
o16
v87
o16
v88
o16
v89
o2
o54
10
o2
v0
v80
o2
v1
v81
o2
v2
v82
o2
v3
v83
o2
v4
v84
o2
v5
v85
o2
v6
v86
o2
v7
v87
o2
v8
v88
o2
v9
v89
o54
10
o2
v0
v80
o2
v1
v81
o2
v2
v82
o2
v3
v83
o2
v4
v84
o2
v5
v85
o2
v6
v86
o2
v7
v87
o2
v8
v88
o2
v9
v89
o2
o54
10
o2
v10
v80
o2
v11
v81
o2
v12
v82
o2
v13
v83
o2
v14
v84
o2
v15
v85
o2
v16
v86
o2
v17
v87
o2
v18
v88
o2
v19
v89
o54
10
o2
v10
v80
o2
v11
v81
o2
v12
v82
o2
v13
v83
o2
v14
v84
o2
v15
v85
o2
v16
v86
o2
v17
v87
o2
v18
v88
o2
v19
v89
o2
o54
10
o2
v20
v80
o2
v21
v81
o2
v22
v82
o2
v23
v83
o2
v24
v84
o2
v25
v85
o2
v26
v86
o2
v27
v87
o2
v28
v88
o2
v29
v89
o54
10
o2
v20
v80
o2
v21
v81
o2
v22
v82
o2
v23
v83
o2
v24
v84
o2
v25
v85
o2
v26
v86
o2
v27
v87
o2
v28
v88
o2
v29
v89
o2
o54
10
o2
v30
v80
o2
v31
v81
o2
v32
v82
o2
v33
v83
o2
v34
v84
o2
v35
v85
o2
v36
v86
o2
v37
v87
o2
v38
v88
o2
v39
v89
o54
10
o2
v30
v80
o2
v31
v81
o2
v32
v82
o2
v33
v83
o2
v34
v84
o2
v35
v85
o2
v36
v86
o2
v37
v87
o2
v38
v88
o2
v39
v89
o2
o54
10
o2
v40
v80
o2
v41
v81
o2
v42
v82
o2
v43
v83
o2
v44
v84
o2
v45
v85
o2
v46
v86
o2
v47
v87
o2
v48
v88
o2
v49
v89
o54
10
o2
v40
v80
o2
v41
v81
o2
v42
v82
o2
v43
v83
o2
v44
v84
o2
v45
v85
o2
v46
v86
o2
v47
v87
o2
v48
v88
o2
v49
v89
o2
o54
10
o2
v50
v80
o2
v51
v81
o2
v52
v82
o2
v53
v83
o2
v54
v84
o2
v55
v85
o2
v56
v86
o2
v57
v87
o2
v58
v88
o2
v59
v89
o54
10
o2
v50
v80
o2
v51
v81
o2
v52
v82
o2
v53
v83
o2
v54
v84
o2
v55
v85
o2
v56
v86
o2
v57
v87
o2
v58
v88
o2
v59
v89
o2
o54
10
o2
v60
v80
o2
v61
v81
o2
v62
v82
o2
v63
v83
o2
v64
v84
o2
v65
v85
o2
v66
v86
o2
v67
v87
o2
v68
v88
o2
v69
v89
o54
10
o2
v60
v80
o2
v61
v81
o2
v62
v82
o2
v63
v83
o2
v64
v84
o2
v65
v85
o2
v66
v86
o2
v67
v87
o2
v68
v88
o2
v69
v89
o2
o54
10
o2
v70
v80
o2
v71
v81
o2
v72
v82
o2
v73
v83
o2
v74
v84
o2
v75
v85
o2
v76
v86
o2
v77
v87
o2
v78
v88
o2
v79
v89
o54
10
o2
v70
v80
o2
v71
v81
o2
v72
v82
o2
v73
v83
o2
v74
v84
o2
v75
v85
o2
v76
v86
o2
v77
v87
o2
v78
v88
o2
v79
v89
o2
o0
n-10
o54
10
o2
v80
v80
o2
v81
v81
o2
v82
v82
o2
v83
v83
o2
v84
v84
o2
v85
v85
o2
v86
v86
o2
v87
v87
o2
v88
v88
o2
v89
v89
o0
n-10
o54
10
o2
v80
v80
o2
v81
v81
o2
v82
v82
o2
v83
v83
o2
v84
v84
o2
v85
v85
o2
v86
v86
o2
v87
v87
o2
v88
v88
o2
v89
v89
o2
o0
n-1
o2
v1
v1
o0
n-1
o2
v1
v1
o2
o0
n-1
o2
v2
v2
o0
n-1
o2
v2
v2
o2
o0
n-1
o2
v3
v3
o0
n-1
o2
v3
v3
o2
o0
n-1
o2
v4
v4
o0
n-1
o2
v4
v4
o2
o0
n-1
o2
v5
v5
o0
n-1
o2
v5
v5
o2
o0
n-1
o2
v6
v6
o0
n-1
o2
v6
v6
o2
o0
n-1
o2
v7
v7
o0
n-1
o2
v7
v7
o2
o0
n-1
o2
v8
v8
o0
n-1
o2
v8
v8
o2
o0
n-1
o2
v9
v9
o0
n-1
o2
v9
v9
o2
o0
n-1
o2
v11
v11
o0
n-1
o2
v11
v11
o2
o0
n-1
o2
v12
v12
o0
n-1
o2
v12
v12
o2
o0
n-1
o2
v13
v13
o0
n-1
o2
v13
v13
o2
o0
n-1
o2
v14
v14
o0
n-1
o2
v14
v14
o2
o0
n-1
o2
v15
v15
o0
n-1
o2
v15
v15
o2
o0
n-1
o2
v16
v16
o0
n-1
o2
v16
v16
o2
o0
n-1
o2
v17
v17
o0
n-1
o2
v17
v17
o2
o0
n-1
o2
v18
v18
o0
n-1
o2
v18
v18
o2
o0
n-1
o2
v19
v19
o0
n-1
o2
v19
v19
o2
o0
n-1
o2
v21
v21
o0
n-1
o2
v21
v21
o2
o0
n-1
o2
v22
v22
o0
n-1
o2
v22
v22
o2
o0
n-1
o2
v23
v23
o0
n-1
o2
v23
v23
o2
o0
n-1
o2
v24
v24
o0
n-1
o2
v24
v24
o2
o0
n-1
o2
v25
v25
o0
n-1
o2
v25
v25
o2
o0
n-1
o2
v26
v26
o0
n-1
o2
v26
v26
o2
o0
n-1
o2
v27
v27
o0
n-1
o2
v27
v27
o2
o0
n-1
o2
v28
v28
o0
n-1
o2
v28
v28
o2
o0
n-1
o2
v29
v29
o0
n-1
o2
v29
v29
o2
o0
n-1
o2
v31
v31
o0
n-1
o2
v31
v31
o2
o0
n-1
o2
v32
v32
o0
n-1
o2
v32
v32
o2
o0
n-1
o2
v33
v33
o0
n-1
o2
v33
v33
o2
o0
n-1
o2
v34
v34
o0
n-1
o2
v34
v34
o2
o0
n-1
o2
v35
v35
o0
n-1
o2
v35
v35
o2
o0
n-1
o2
v36
v36
o0
n-1
o2
v36
v36
o2
o0
n-1
o2
v37
v37
o0
n-1
o2
v37
v37
o2
o0
n-1
o2
v38
v38
o0
n-1
o2
v38
v38
o2
o0
n-1
o2
v39
v39
o0
n-1
o2
v39
v39
o2
o0
n-1
o2
v41
v41
o0
n-1
o2
v41
v41
o2
o0
n-1
o2
v42
v42
o0
n-1
o2
v42
v42
o2
o0
n-1
o2
v43
v43
o0
n-1
o2
v43
v43
o2
o0
n-1
o2
v44
v44
o0
n-1
o2
v44
v44
o2
o0
n-1
o2
v45
v45
o0
n-1
o2
v45
v45
o2
o0
n-1
o2
v46
v46
o0
n-1
o2
v46
v46
o2
o0
n-1
o2
v47
v47
o0
n-1
o2
v47
v47
o2
o0
n-1
o2
v48
v48
o0
n-1
o2
v48
v48
o2
o0
n-1
o2
v49
v49
o0
n-1
o2
v49
v49
o2
o0
n-1
o2
v51
v51
o0
n-1
o2
v51
v51
o2
o0
n-1
o2
v52
v52
o0
n-1
o2
v52
v52
o2
o0
n-1
o2
v53
v53
o0
n-1
o2
v53
v53
o2
o0
n-1
o2
v54
v54
o0
n-1
o2
v54
v54
o2
o0
n-1
o2
v55
v55
o0
n-1
o2
v55
v55
o2
o0
n-1
o2
v56
v56
o0
n-1
o2
v56
v56
o2
o0
n-1
o2
v57
v57
o0
n-1
o2
v57
v57
o2
o0
n-1
o2
v58
v58
o0
n-1
o2
v58
v58
o2
o0
n-1
o2
v59
v59
o0
n-1
o2
v59
v59
o2
o0
n-1
o2
v61
v61
o0
n-1
o2
v61
v61
o2
o0
n-1
o2
v62
v62
o0
n-1
o2
v62
v62
o2
o0
n-1
o2
v63
v63
o0
n-1
o2
v63
v63
o2
o0
n-1
o2
v64
v64
o0
n-1
o2
v64
v64
o2
o0
n-1
o2
v65
v65
o0
n-1
o2
v65
v65
o2
o0
n-1
o2
v66
v66
o0
n-1
o2
v66
v66
o2
o0
n-1
o2
v67
v67
o0
n-1
o2
v67
v67
o2
o0
n-1
o2
v68
v68
o0
n-1
o2
v68
v68
o2
o0
n-1
o2
v69
v69
o0
n-1
o2
v69
v69
o2
o0
n-1
o2
v71
v71
o0
n-1
o2
v71
v71
o2
o0
n-1
o2
v72
v72
o0
n-1
o2
v72
v72
o2
o0
n-1
o2
v73
v73
o0
n-1
o2
v73
v73
o2
o0
n-1
o2
v74
v74
o0
n-1
o2
v74
v74
o2
o0
n-1
o2
v75
v75
o0
n-1
o2
v75
v75
o2
o0
n-1
o2
v76
v76
o0
n-1
o2
v76
v76
o2
o0
n-1
o2
v77
v77
o0
n-1
o2
v77
v77
o2
o0
n-1
o2
v78
v78
o0
n-1
o2
v78
v78
o2
o0
n-1
o2
v79
v79
o0
n-1
o2
v79
v79
o2
o0
n-1
o2
v81
v81
o0
n-1
o2
v81
v81
o2
o0
n-1
o2
v82
v82
o0
n-1
o2
v82
v82
o2
o0
n-1
o2
v83
v83
o0
n-1
o2
v83
v83
o2
o0
n-1
o2
v84
v84
o0
n-1
o2
v84
v84
o2
o0
n-1
o2
v85
v85
o0
n-1
o2
v85
v85
o2
o0
n-1
o2
v86
v86
o0
n-1
o2
v86
v86
o2
o0
n-1
o2
v87
v87
o0
n-1
o2
v87
v87
o2
o0
n-1
o2
v88
v88
o0
n-1
o2
v88
v88
o2
o0
n-1
o2
v89
v89
o0
n-1
o2
v89
v89
k89
0
0
0
0
0
0
0
0
0
0
0
0
0
0
0
0
0
0
0
0
0
0
0
0
0
0
0
0
0
0
0
0
0
0
0
0
0
0
0
0
0
0
0
0
0
0
0
0
0
0
0
0
0
0
0
0
0
0
0
0
0
0
0
0
0
0
0
0
0
0
0
0
0
0
0
0
0
0
0
0
0
0
0
0
0
0
0
0
0
G0 90
0 0
1 0
2 0
3 0
4 0
5 0
6 0
7 0
8 0
9 0
10 0
11 0
12 0
13 0
14 0
15 0
16 0
17 0
18 0
19 0
20 0
21 0
22 0
23 0
24 0
25 0
26 0
27 0
28 0
29 0
30 0
31 0
32 0
33 0
34 0
35 0
36 0
37 0
38 0
39 0
40 0
41 0
42 0
43 0
44 0
45 0
46 0
47 0
48 0
49 0
50 0
51 0
52 0
53 0
54 0
55 0
56 0
57 0
58 0
59 0
60 0
61 0
62 0
63 0
64 0
65 0
66 0
67 0
68 0
69 0
70 0
71 0
72 0
73 0
74 0
75 0
76 0
77 0
78 0
79 0
80 0
81 0
82 0
83 0
84 0
85 0
86 0
87 0
88 0
89 0
